unsat
((set-logic NIA)
(declare-fun k!2 () Int)
(declare-fun n!0 () Int)
(declare-fun c!3 () Int)
(declare-fun m!1 () Int)
(proof
(let ((?x539 (* (- 1) k!2)))
 (let ((?x735 (* n!0 k!2)))
 (let ((?x525 (* (- 3) c!3)))
 (let ((?x711 (* 2 n!0)))
 (let ((?x718 (+ ?x711 ?x525 ?x735 ?x539)))
 (let (($x744 (<= ?x718 (- 1))))
 (let (($x552 (= ?x718 (- 1))))
 (let ((?x830 (+ ?x711 ?x525 ?x735 (* (- 3) k!2) (* n!0 m!1))))
 (let (($x831 (= ?x830 (- 3))))
 (let (($x839 (not $x831)))
 (let ((?x767 (* k!2 k!2)))
 (let ((?x758 (* m!1 m!1)))
 (let ((?x538 (* (- 9) (* n!0 c!3))))
 (let ((?x548 (* 9 n!0)))
 (let ((?x826 (+ ?x548 (* 2 (* k!2 m!1)) ?x538 (* (- 27) c!3) (* (- 9) ?x735) ?x758 (* (- 32) k!2) (* (- 5) m!1) ?x767)))
 (let (($x827 (= ?x826 (- 13))))
 (let (($x832 (not $x827)))
 (let ((?x603 (* (- 1) m!1)))
 (let ((?x559 (* n!0 n!0)))
 (let ((?x556 (* 3 ?x559)))
 (let ((?x809 (+ ?x556 ?x548 ?x539 ?x603)))
 (let (($x814 (= ?x809 (- 7))))
 (let (($x801 (or (not $x814) $x832 $x839)))
 (let ((?x784 (+ ?x556 (* 3 n!0) ?x539)))
 (let (($x791 (= ?x784 (- 1))))
 (let ((?x574 (+ ?x548 ?x538 (* (- 18) c!3) (* (- 5) k!2) ?x767)))
 (let (($x620 (= ?x574 (- 4))))
 (let ((?x578 (+ (* 6 n!0) ?x603)))
 (let (($x680 (= ?x578 (- 6))))
 (let (($x817 (and $x680 $x620 $x552 $x791 $x801)))
 (let ((?x623 (* k!2 n!0)))
 (let ((?x673 (* (- 1) ?x623)))
 (let ((?x686 (* (- 2) n!0)))
 (let ((?x681 (* 3 c!3)))
 (let (($x790 (= (+ ?x681 (* 3 k!2) ?x686 ?x673 (* (- 1) (* m!1 n!0))) 3)))
 (let ((?x725 (* 9 (* c!3 n!0))))
 (let ((?x768 (* (- 1) ?x767)))
 (let ((?x766 (* (- 9) n!0)))
 (let ((?x769 (+ (* 27 c!3) (* 32 k!2) (* 5 m!1) ?x766 ?x768 ?x725 (* 9 ?x623) (* (- 2) (* k!2 m!1)) (* (- 1) ?x758))))
 (let (($x524 (or (not (= ?x769 13)) (not $x790) (not (= (+ k!2 m!1 ?x766 (* (- 3) ?x559)) 7)))))
 (let (($x704 (and (= (+ m!1 (* (- 6) n!0)) 6) (= (+ (* 18 c!3) (* 5 k!2) ?x766 ?x768 ?x725) 4) (= (+ ?x681 k!2 ?x686 ?x673) 1) (= (+ k!2 (* (- 3) n!0) (* (- 3) ?x559)) 1) $x524)))
 (let (($x779 (exists ((c Int) (k Int) (m Int) (n Int) )(! (let (($x810 (not (= (+ k m (* (- 9) n) (* (- 3) (* n n))) 7))))
 (let ((?x240 (* k n)))
 (let ((?x301 (* (- 1) ?x240)))
 (let ((?x300 (* (- 2) n)))
 (let ((?x54 (* 3 c)))
 (let (($x682 (= (+ ?x54 (* 3 k) ?x300 ?x301 (* (- 1) (* m n))) 3)))
 (let (($x689 (not $x682)))
 (let ((?x147 (* c n)))
 (let ((?x148 (* 9 ?x147)))
 (let ((?x34 (* k k)))
 (let ((?x234 (* (- 1) ?x34)))
 (let ((?x233 (* (- 9) n)))
 (let ((?x634 (+ (* 27 c) (* 32 k) (* 5 m) ?x233 ?x234 ?x148 (* 9 ?x240) (* (- 2) (* k m)) (* (- 1) (* m m)))))
 (let (($x638 (not (= ?x634 13))))
 (let (($x347 (= (+ k (* (- 3) n) (* (- 3) (* n n))) 1)))
 (let (($x303 (= (+ ?x54 k ?x300 ?x301) 1)))
 (let (($x232 (= (+ (* 18 c) (* 5 k) ?x233 ?x234 ?x148) 4)))
 (let ((?x112 (* (- 6) n)))
 (let ((?x115 (+ m ?x112)))
 (let (($x142 (= ?x115 6)))
 (and $x142 $x232 $x303 $x347 (or $x638 $x689 $x810)))))))))))))))))))))) :qid k!36))
 ))
 (let (($x542 (exists ((c Int) (k Int) (m Int) (n Int) )(! (let ((?x570 (* (- 1) m)))
 (let ((?x254 (* (- 1) k)))
 (let ((?x61 (* 3 n)))
 (let (($x788 (= (+ (* 3 (* (+ 1 n) (+ 1 n))) ?x61 ?x254 ?x570) (- 4))))
 (let (($x793 (not $x788)))
 (let ((?x275 (* (- 3) c)))
 (let ((?x51 (* 2 n)))
 (let (($x772 (= (+ (* (+ 1 n) (+ k m)) ?x51 (* (- 4) k) ?x570 ?x275) (- 3))))
 (let (($x777 (not $x772)))
 (let ((?x208 (* (- 18) c)))
 (let ((?x38 (* 9 n)))
 (let ((?x72 (+ k m)))
 (let ((?x73 (* ?x72 ?x72)))
 (let ((?x739 (+ ?x73 (* (- 9) (* (+ 1 n) (+ c k))) ?x38 (* (- 23) k) (* (- 5) m) ?x208)))
 (let (($x745 (not (= ?x739 (- 13)))))
 (let (($x448 (or $x745 $x777 $x793)))
 (let ((?x308 (* n n)))
 (let ((?x309 (* 3 ?x308)))
 (let ((?x569 (+ ?x309 ?x61 ?x254)))
 (let (($x564 (= ?x569 (- 1))))
 (let ((?x49 (* n k)))
 (let ((?x502 (+ ?x49 ?x51 ?x254 ?x275)))
 (let (($x442 (= ?x502 (- 1))))
 (let ((?x185 (* (- 5) k)))
 (let ((?x652 (* n c)))
 (let ((?x663 (* (- 9) ?x652)))
 (let ((?x34 (* k k)))
 (let ((?x519 (+ ?x34 ?x663 ?x38 ?x185 ?x208)))
 (let (($x476 (= ?x519 (- 4))))
 (let ((?x112 (* (- 6) n)))
 (let ((?x115 (+ m ?x112)))
 (let (($x142 (= ?x115 6)))
 (and $x142 $x476 $x442 $x564 $x448))))))))))))))))))))))))))))))))) :qid k!36))
 ))
 (let ((?x782 (lambda ((c Int) (k Int) (m Int) (n Int) )(let (($x810 (not (= (+ k m (* (- 9) n) (* (- 3) (* n n))) 7))))
 (let ((?x240 (* k n)))
 (let ((?x301 (* (- 1) ?x240)))
 (let ((?x300 (* (- 2) n)))
 (let ((?x54 (* 3 c)))
 (let (($x682 (= (+ ?x54 (* 3 k) ?x300 ?x301 (* (- 1) (* m n))) 3)))
 (let (($x689 (not $x682)))
 (let ((?x147 (* c n)))
 (let ((?x148 (* 9 ?x147)))
 (let ((?x34 (* k k)))
 (let ((?x234 (* (- 1) ?x34)))
 (let ((?x233 (* (- 9) n)))
 (let ((?x634 (+ (* 27 c) (* 32 k) (* 5 m) ?x233 ?x234 ?x148 (* 9 ?x240) (* (- 2) (* k m)) (* (- 1) (* m m)))))
 (let (($x638 (not (= ?x634 13))))
 (let (($x347 (= (+ k (* (- 3) n) (* (- 3) (* n n))) 1)))
 (let (($x303 (= (+ ?x54 k ?x300 ?x301) 1)))
 (let (($x232 (= (+ (* 18 c) (* 5 k) ?x233 ?x234 ?x148) 4)))
 (let ((?x112 (* (- 6) n)))
 (let ((?x115 (+ m ?x112)))
 (let (($x142 (= ?x115 6)))
 (let (($x770 (and $x142 $x232 $x303 $x347 (or $x638 $x689 $x810))))
 (let ((?x570 (* (- 1) m)))
 (let ((?x254 (* (- 1) k)))
 (let ((?x61 (* 3 n)))
 (let (($x788 (= (+ (* 3 (* (+ 1 n) (+ 1 n))) ?x61 ?x254 ?x570) (- 4))))
 (let (($x793 (not $x788)))
 (let ((?x275 (* (- 3) c)))
 (let ((?x51 (* 2 n)))
 (let (($x772 (= (+ (* (+ 1 n) (+ k m)) ?x51 (* (- 4) k) ?x570 ?x275) (- 3))))
 (let (($x777 (not $x772)))
 (let ((?x208 (* (- 18) c)))
 (let ((?x38 (* 9 n)))
 (let ((?x72 (+ k m)))
 (let ((?x73 (* ?x72 ?x72)))
 (let ((?x739 (+ ?x73 (* (- 9) (* (+ 1 n) (+ c k))) ?x38 (* (- 23) k) (* (- 5) m) ?x208)))
 (let (($x745 (not (= ?x739 (- 13)))))
 (let (($x448 (or $x745 $x777 $x793)))
 (let ((?x308 (* n n)))
 (let ((?x309 (* 3 ?x308)))
 (let ((?x569 (+ ?x309 ?x61 ?x254)))
 (let (($x564 (= ?x569 (- 1))))
 (let ((?x49 (* n k)))
 (let ((?x502 (+ ?x49 ?x51 ?x254 ?x275)))
 (let (($x442 (= ?x502 (- 1))))
 (let ((?x185 (* (- 5) k)))
 (let ((?x652 (* n c)))
 (let ((?x663 (* (- 9) ?x652)))
 (let ((?x519 (+ ?x34 ?x663 ?x38 ?x185 ?x208)))
 (let (($x476 (= ?x519 (- 4))))
 (let (($x595 (and $x142 $x476 $x442 $x564 $x448)))
 (rewrite (= $x595 $x770)))))))))))))))))))))))))))))))))))))))))))))))))))))
 ))
 (let (($x104 (exists ((c Int) (k Int) (m Int) (n Int) )(! (let ((?x72 (+ k m)))
 (let ((?x97 (+ (* 3 (+ n 1) (+ n 1)) (* 3 (+ n 1)))))
 (let (($x101 (not (= (+ (- ?x97 ?x72) 1) 0))))
 (let ((?x91 (- (- (+ (* (+ n 1) ?x72) (* 2 (+ n 1))) ?x72) (* 3 (+ c k)))))
 (let (($x94 (not (= (+ ?x91 1) 0))))
 (let ((?x78 (+ (- (* ?x72 ?x72) (* 9 (+ n 1) (+ c k))) (* 9 (+ n 1)))))
 (let (($x84 (= (+ (- (- ?x78 (* 5 ?x72)) (* 18 (+ c k))) 4) 0)))
 (let (($x85 (not $x84)))
 (let (($x102 (or $x85 $x94 $x101)))
 (let ((?x67 (+ n 1)))
 (let ((?x68 (* 6 ?x67)))
 (let ((?x66 (+ m 6)))
 (let ((?x69 (- ?x66 ?x68)))
 (let ((?x70 (- ?x69 6)))
 (let (($x71 (= ?x70 0)))
 (let ((?x61 (* 3 n)))
 (let ((?x60 (* 3 n n)))
 (let ((?x62 (+ ?x60 ?x61)))
 (let ((?x63 (- ?x62 k)))
 (let ((?x64 (+ ?x63 1)))
 (let (($x65 (= ?x64 0)))
 (let ((?x54 (* 3 c)))
 (let ((?x51 (* 2 n)))
 (let ((?x49 (* n k)))
 (let ((?x52 (+ ?x49 ?x51)))
 (let ((?x55 (- ?x52 k)))
 (let ((?x56 (- ?x55 ?x54)))
 (let ((?x58 (+ ?x56 1)))
 (let (($x59 (= ?x58 0)))
 (let ((?x43 (* 18 c)))
 (let ((?x41 (* 5 k)))
 (let ((?x38 (* 9 n)))
 (let ((?x36 (* 9 n c)))
 (let ((?x34 (* k k)))
 (let ((?x37 (- ?x34 ?x36)))
 (let ((?x39 (+ ?x37 ?x38)))
 (let ((?x44 (- ?x39 ?x41)))
 (let ((?x45 (- ?x44 ?x43)))
 (let ((?x47 (+ ?x45 4)))
 (let (($x48 (= ?x47 0)))
 (let ((?x29 (* 6 n)))
 (let ((?x30 (- m ?x29)))
 (let ((?x31 (- ?x30 6)))
 (let (($x33 (= ?x31 0)))
 (and $x33 $x48 $x59 $x65 $x71 $x102))))))))))))))))))))))))))))))))))))))))))))) :qid k!36))
 ))
 (let ((?x536 (lambda ((c Int) (k Int) (m Int) (n Int) )(let ((?x570 (* (- 1) m)))
 (let ((?x254 (* (- 1) k)))
 (let ((?x61 (* 3 n)))
 (let (($x788 (= (+ (* 3 (* (+ 1 n) (+ 1 n))) ?x61 ?x254 ?x570) (- 4))))
 (let (($x793 (not $x788)))
 (let ((?x275 (* (- 3) c)))
 (let ((?x51 (* 2 n)))
 (let (($x772 (= (+ (* (+ 1 n) (+ k m)) ?x51 (* (- 4) k) ?x570 ?x275) (- 3))))
 (let (($x777 (not $x772)))
 (let ((?x208 (* (- 18) c)))
 (let ((?x38 (* 9 n)))
 (let ((?x72 (+ k m)))
 (let ((?x73 (* ?x72 ?x72)))
 (let ((?x739 (+ ?x73 (* (- 9) (* (+ 1 n) (+ c k))) ?x38 (* (- 23) k) (* (- 5) m) ?x208)))
 (let (($x745 (not (= ?x739 (- 13)))))
 (let (($x448 (or $x745 $x777 $x793)))
 (let ((?x308 (* n n)))
 (let ((?x309 (* 3 ?x308)))
 (let ((?x569 (+ ?x309 ?x61 ?x254)))
 (let (($x564 (= ?x569 (- 1))))
 (let ((?x49 (* n k)))
 (let ((?x502 (+ ?x49 ?x51 ?x254 ?x275)))
 (let (($x442 (= ?x502 (- 1))))
 (let ((?x185 (* (- 5) k)))
 (let ((?x652 (* n c)))
 (let ((?x663 (* (- 9) ?x652)))
 (let ((?x34 (* k k)))
 (let ((?x519 (+ ?x34 ?x663 ?x38 ?x185 ?x208)))
 (let (($x476 (= ?x519 (- 4))))
 (let ((?x112 (* (- 6) n)))
 (let ((?x115 (+ m ?x112)))
 (let (($x142 (= ?x115 6)))
 (let (($x595 (and $x142 $x476 $x442 $x564 $x448)))
 (let ((?x97 (+ (* 3 (+ n 1) (+ n 1)) (* 3 (+ n 1)))))
 (let (($x101 (not (= (+ (- ?x97 ?x72) 1) 0))))
 (let ((?x91 (- (- (+ (* (+ n 1) ?x72) (* 2 (+ n 1))) ?x72) (* 3 (+ c k)))))
 (let (($x94 (not (= (+ ?x91 1) 0))))
 (let ((?x78 (+ (- ?x73 (* 9 (+ n 1) (+ c k))) (* 9 (+ n 1)))))
 (let (($x84 (= (+ (- (- ?x78 (* 5 ?x72)) (* 18 (+ c k))) 4) 0)))
 (let (($x85 (not $x84)))
 (let (($x102 (or $x85 $x94 $x101)))
 (let ((?x67 (+ n 1)))
 (let ((?x68 (* 6 ?x67)))
 (let ((?x66 (+ m 6)))
 (let ((?x69 (- ?x66 ?x68)))
 (let ((?x70 (- ?x69 6)))
 (let (($x71 (= ?x70 0)))
 (let ((?x60 (* 3 n n)))
 (let ((?x62 (+ ?x60 ?x61)))
 (let ((?x63 (- ?x62 k)))
 (let ((?x64 (+ ?x63 1)))
 (let (($x65 (= ?x64 0)))
 (let ((?x54 (* 3 c)))
 (let ((?x52 (+ ?x49 ?x51)))
 (let ((?x55 (- ?x52 k)))
 (let ((?x56 (- ?x55 ?x54)))
 (let ((?x58 (+ ?x56 1)))
 (let (($x59 (= ?x58 0)))
 (let ((?x43 (* 18 c)))
 (let ((?x41 (* 5 k)))
 (let ((?x36 (* 9 n c)))
 (let ((?x37 (- ?x34 ?x36)))
 (let ((?x39 (+ ?x37 ?x38)))
 (let ((?x44 (- ?x39 ?x41)))
 (let ((?x45 (- ?x44 ?x43)))
 (let ((?x47 (+ ?x45 4)))
 (let (($x48 (= ?x47 0)))
 (let ((?x29 (* 6 n)))
 (let ((?x30 (- m ?x29)))
 (let ((?x31 (- ?x30 6)))
 (let (($x33 (= ?x31 0)))
 (let (($x103 (and $x33 $x48 $x59 $x65 $x71 $x102)))
 (let (($x451 (= $x102 $x448)))
 (let ((@x449 (monotonicity (rewrite (= $x85 $x745)) (rewrite (= $x94 $x777)) (rewrite (= $x101 $x793)) $x451)))
 (let ((@x144 (rewrite (= (= (+ (- 6) m ?x112) 0) $x142))))
 (let ((@x131 (monotonicity (rewrite (= (* (- 1) 6) (- 6))) (= (+ ?x115 (* (- 1) 6)) (+ ?x115 (- 6))))))
 (let ((@x136 (trans @x131 (rewrite (= (+ ?x115 (- 6)) (+ (- 6) m ?x112))) (= (+ ?x115 (* (- 1) 6)) (+ (- 6) m ?x112)))))
 (let ((@x124 (rewrite (= (- ?x115 6) (+ ?x115 (* (- 1) 6))))))
 (let ((?x386 (+ (- 6) ?x112)))
 (let ((?x352 (+ 6 m)))
 (let ((?x391 (+ ?x352 ?x386)))
 (let ((?x369 (+ 6 ?x29)))
 (let ((?x375 (* (- 1) ?x369)))
 (let ((?x376 (+ ?x352 ?x375)))
 (let ((@x390 (trans (rewrite (= ?x375 (+ (* (- 1) 6) (* (- 1) ?x29)))) (rewrite (= (+ (* (- 1) 6) (* (- 1) ?x29)) ?x386)) (= ?x375 ?x386))))
 (let ((@x397 (trans (monotonicity @x390 (= ?x376 ?x391)) (rewrite (= ?x391 ?x115)) (= ?x376 ?x115))))
 (let ((@x360 (monotonicity (rewrite (= ?x67 (+ 1 n))) (= ?x68 (* 6 (+ 1 n))))))
 (let ((@x366 (trans @x360 (rewrite (= (* 6 (+ 1 n)) (+ (* 6 1) ?x29))) (= ?x68 (+ (* 6 1) ?x29)))))
 (let ((@x368 (trans @x366 (rewrite (= (+ (* 6 1) ?x29) ?x369)) (= ?x68 ?x369))))
 (let ((@x380 (trans (monotonicity (rewrite (= ?x66 ?x352)) @x368 (= ?x69 (- ?x352 ?x369))) (rewrite (= (- ?x352 ?x369) ?x376)) (= ?x69 ?x376))))
 (let ((@x401 (monotonicity (trans @x380 @x397 (= ?x69 ?x115)) (= ?x70 (- ?x115 6)))))
 (let ((@x405 (trans (trans @x401 @x124 (= ?x70 (+ ?x115 (* (- 1) 6)))) @x136 (= ?x70 (+ (- 6) m ?x112)))))
 (let ((@x409 (trans (monotonicity @x405 (= $x71 (= (+ (- 6) m ?x112) 0))) @x144 (= $x71 $x142))))
 (let ((@x695 (monotonicity (rewrite (= ?x62 (+ ?x309 ?x61))) (= ?x63 (- (+ ?x309 ?x61) k)))))
 (let ((@x558 (trans @x695 (rewrite (= (- (+ ?x309 ?x61) k) (+ (+ ?x309 ?x61) ?x254))) (= ?x63 (+ (+ ?x309 ?x61) ?x254)))))
 (let ((@x413 (trans @x558 (rewrite (= (+ (+ ?x309 ?x61) ?x254) ?x569)) (= ?x63 ?x569))))
 (let ((@x554 (trans (monotonicity @x413 (= ?x64 (+ ?x569 1))) (rewrite (= (+ ?x569 1) (+ 1 ?x309 ?x61 ?x254))) (= ?x64 (+ 1 ?x309 ?x61 ?x254)))))
 (let ((@x446 (trans (monotonicity @x554 (= $x65 (= (+ 1 ?x309 ?x61 ?x254) 0))) (rewrite (= (= (+ 1 ?x309 ?x61 ?x254) 0) $x564)) (= $x65 $x564))))
 (let ((?x484 (+ ?x49 ?x51 ?x254)))
 (let ((?x499 (+ ?x484 ?x275)))
 (let ((?x268 (* (- 1) ?x54)))
 (let ((?x492 (+ ?x484 ?x268)))
 (let ((@x277 (rewrite (= ?x268 ?x275))))
 (let ((@x506 (trans (monotonicity @x277 (= ?x492 ?x499)) (rewrite (= ?x499 ?x502)) (= ?x492 ?x502))))
 (let ((@x487 (trans (rewrite (= ?x55 (+ ?x52 ?x254))) (rewrite (= (+ ?x52 ?x254) ?x484)) (= ?x55 ?x484))))
 (let ((@x498 (trans (monotonicity @x487 (= ?x56 (- ?x484 ?x54))) (rewrite (= (- ?x484 ?x54) ?x492)) (= ?x56 ?x492))))
 (let ((@x464 (monotonicity (trans @x498 @x506 (= ?x56 ?x502)) (= ?x58 (+ ?x502 1)))))
 (let ((@x513 (trans @x464 (rewrite (= (+ ?x502 1) (+ 1 ?x49 ?x51 ?x254 ?x275))) (= ?x58 (+ 1 ?x49 ?x51 ?x254 ?x275)))))
 (let ((@x688 (trans (monotonicity @x513 (= $x59 (= (+ 1 ?x49 ?x51 ?x254 ?x275) 0))) (rewrite (= (= (+ 1 ?x49 ?x51 ?x254 ?x275) 0) $x442)) (= $x59 $x442))))
 (let ((?x612 (+ ?x34 ?x663 ?x38 ?x185)))
 (let ((?x468 (+ ?x612 ?x208)))
 (let ((?x201 (* (- 1) ?x43)))
 (let ((?x462 (+ ?x612 ?x201)))
 (let ((@x210 (rewrite (= ?x201 ?x208))))
 (let ((@x577 (trans (monotonicity @x210 (= ?x462 ?x468)) (rewrite (= ?x468 ?x519)) (= ?x462 ?x519))))
 (let ((?x523 (+ ?x34 ?x663 ?x38)))
 (let ((?x546 (+ ?x523 ?x185)))
 (let ((?x178 (* (- 1) ?x41)))
 (let ((?x650 (+ ?x523 ?x178)))
 (let ((@x187 (rewrite (= ?x178 ?x185))))
 (let ((@x443 (trans (monotonicity @x187 (= ?x650 ?x546)) (rewrite (= ?x546 ?x612)) (= ?x650 ?x612))))
 (let ((@x646 (rewrite (= (- ?x34 (* 9 ?x652)) (+ ?x34 (* (- 1) (* 9 ?x652)))))))
 (let ((@x661 (monotonicity (rewrite (= ?x36 (* 9 ?x652))) (= ?x37 (- ?x34 (* 9 ?x652))))))
 (let ((@x665 (trans (trans @x661 @x646 (= ?x37 (+ ?x34 (* (- 1) (* 9 ?x652))))) (rewrite (= (+ ?x34 (* (- 1) (* 9 ?x652))) (+ ?x34 ?x663))) (= ?x37 (+ ?x34 ?x663)))))
 (let ((@x588 (trans (monotonicity @x665 (= ?x39 (+ (+ ?x34 ?x663) ?x38))) (rewrite (= (+ (+ ?x34 ?x663) ?x38) ?x523)) (= ?x39 ?x523))))
 (let ((@x544 (trans (monotonicity @x588 (= ?x44 (- ?x523 ?x41))) (rewrite (= (- ?x523 ?x41) ?x650)) (= ?x44 ?x650))))
 (let ((@x429 (monotonicity (trans @x544 @x443 (= ?x44 ?x612)) (= ?x45 (- ?x612 ?x43)))))
 (let ((@x447 (trans (trans @x429 (rewrite (= (- ?x612 ?x43) ?x462)) (= ?x45 ?x462)) @x577 (= ?x45 ?x519))))
 (let ((@x471 (trans (monotonicity @x447 (= ?x47 (+ ?x519 4))) (rewrite (= (+ ?x519 4) (+ 4 ?x34 ?x663 ?x38 ?x185 ?x208))) (= ?x47 (+ 4 ?x34 ?x663 ?x38 ?x185 ?x208)))))
 (let ((@x474 (monotonicity @x471 (= $x48 (= (+ 4 ?x34 ?x663 ?x38 ?x185 ?x208) 0)))))
 (let ((@x480 (trans @x474 (rewrite (= (= (+ 4 ?x34 ?x663 ?x38 ?x185 ?x208) 0) $x476)) (= $x48 $x476))))
 (let ((@x114 (trans (rewrite (= ?x30 (+ m (* (- 1) ?x29)))) (rewrite (= (+ m (* (- 1) ?x29)) ?x115)) (= ?x30 ?x115))))
 (let ((@x126 (trans (monotonicity @x114 (= ?x31 (- ?x115 6))) @x124 (= ?x31 (+ ?x115 (* (- 1) 6))))))
 (let ((@x141 (monotonicity (trans @x126 @x136 (= ?x31 (+ (- 6) m ?x112))) (= $x33 (= (+ (- 6) m ?x112) 0)))))
 (let ((@x146 (trans @x141 @x144 (= $x33 $x142))))
 (let ((@x493 (monotonicity @x146 @x480 @x688 @x446 @x409 (trans @x449 (rewrite (= $x448 $x448)) $x451) (= $x103 (and $x142 $x476 $x442 $x564 $x142 $x448)))))
 (trans @x493 (rewrite (= (and $x142 $x476 $x442 $x564 $x142 $x448) $x595)) (= $x103 $x595)))))))))))))))))))))))))))))))))))))))))))))))))))))))))))))))))))))))))))))))))))))))))))))))))))))))))))))))))))))))))))))))))))))))))))
 ))
 (let ((@x105 (asserted $x104)))
 (let ((@x609 (mp (mp @x105 (quant-intro (proof-bind ?x536) (= $x104 $x542)) $x542) (rewrite (= $x542 $x542)) $x542)))
 (let ((@x700 (mp~ (mp @x609 (quant-intro (proof-bind ?x782) (= $x542 $x779)) $x779) (sk (~ $x779 $x704)) $x704)))
 (let ((@x833 (mp @x700 (rewrite (= $x704 $x817)) $x817)))
 (let ((@x842 (and-elim @x833 $x552)))
 (let ((@x857 (unit-resolution ((_ th-lemma arith triangle-eq) (or (not $x552) $x744)) @x842 $x744)))
 (let (($x571 (>= ?x718 (- 1))))
 (let ((@x751 (unit-resolution ((_ th-lemma arith triangle-eq) (or (not $x552) $x571)) @x842 $x571)))
 (let (($x456 (<= ?x574 (- 4))))
 (let ((@x840 (and-elim @x833 $x620)))
 (let ((@x896 (unit-resolution ((_ th-lemma arith triangle-eq) (or (not $x620) $x456)) @x840 $x456)))
 (let (($x743 (>= ?x574 (- 4))))
 (let ((@x899 (unit-resolution ((_ th-lemma arith triangle-eq) (or (not $x620) $x743)) @x840 $x743)))
 (let (($x736 (<= ?x784 (- 1))))
 (let ((@x834 (and-elim @x833 $x791)))
 (let ((@x669 (unit-resolution ((_ th-lemma arith triangle-eq) (or (not $x791) $x736)) @x834 $x736)))
 (let (($x737 (>= ?x784 (- 1))))
 (let ((@x872 (unit-resolution ((_ th-lemma arith triangle-eq) (or (not $x791) $x737)) @x834 $x737)))
 (let (($x741 (<= ?x578 (- 6))))
 (let ((@x835 (and-elim @x833 $x680)))
 (let ((@x876 (unit-resolution ((_ th-lemma arith triangle-eq) (or (not $x680) $x741)) @x835 $x741)))
 (let (($x676 (>= ?x578 (- 6))))
 (let ((@x563 (unit-resolution ((_ th-lemma arith triangle-eq) (or (not $x680) $x676)) @x835 $x676)))
 (let (($x974 (not (>= ?x826 (- 13)))))
 (let (($x807 (<= ?x830 (- 3))))
 (let ((@x889 ((_ th-lemma arith) (hypothesis (not $x807)) @x751 @x857 @x751 @x857 @x751 @x857 @x563 @x876 @x899 @x896 @x563 @x876 @x751 @x857 @x563 @x876 @x751 @x857 @x751 @x857 @x872 @x669 false)))
 (let (($x815 (>= ?x830 (- 3))))
 (let ((@x598 ((_ th-lemma arith) (hypothesis (not $x815)) @x563 @x876 @x872 @x669 @x872 @x669 @x751 @x857 @x872 @x669 false)))
 (let ((@x999 (unit-resolution ((_ th-lemma arith triangle-eq) (or $x831 (not $x807) (not $x815))) (lemma @x598 $x815) (or $x831 (not $x807)))))
 (let (($x805 (>= ?x809 (- 7))))
 (let ((@x992 (unit-resolution ((_ th-lemma arith assign-bounds -1 -1) (or $x805 (not $x676) (not $x737))) @x872 @x563 $x805)))
 (let (($x802 (<= ?x809 (- 7))))
 (let ((@x987 (unit-resolution ((_ th-lemma arith assign-bounds -1 -1) (or $x802 (not $x741) (not $x736))) @x669 @x876 $x802)))
 (let ((@x993 (unit-resolution ((_ th-lemma arith triangle-eq) (or $x814 (not $x802) (not $x805))) @x987 @x992 $x814)))
 (let ((@x1001 (unit-resolution (unit-resolution (and-elim @x833 $x801) @x993 (or $x832 $x839)) (unit-resolution @x999 (lemma @x889 $x807) $x831) $x832)))
 (let (($x808 (<= ?x826 (- 13))))
 (let ((@x858 ((_ th-lemma arith) (hypothesis (not $x808)) @x563 @x876 @x872 @x669 @x751 @x857 @x872 @x669 @x872 @x669 @x751 @x857 @x563 @x876 @x899 @x896 false)))
 (let ((@x978 (unit-resolution ((_ th-lemma arith triangle-eq) (or $x827 (not $x808) $x974)) (lemma @x858 $x808) (or $x827 $x974))))
 ((_ th-lemma arith) (unit-resolution @x978 @x1001 $x974) @x563 @x876 @x872 @x669 @x563 @x876 @x872 @x669 @x899 @x896 @x751 @x857 false)))))))))))))))))))))))))))))))))))))))))))))))))))))))))))))))))))))))))))))))))))))))

